Debug: configOverride contents: IsWeighted_ObjFunc add_break_callback add_generate_reports add_threshold_distance_rssv bw_multiplier capacities cover_mode coverages cust_max_id distance_matrix loc_max_id max_ite_subprob_rssv method method_post_opt method_rssv_fp method_rssv_sp output p seed service size_subproblems_rssv subarea threads time time_cplex time_subprob_rssv weights 
Loading instance...
Scanning input data...
Distance matrix dimensions: 3039 x 3039 = 9235521
Elapsed time: 0 ms

Loading weights...
Skipped line: customer weight coord_x coord_y
Loaded 3038 weights
Loaded 3038 coordinates
Total customer demand: 155824.00
Elapsed time: 84 ms

Loading capacities...
Skipped line: location capacity coord_x coord_y
Loaded 3038 capacities
Loaded 3038 coordinates
Elapsed time: 7 ms

Loading distance matrix...
Computing euclidian distances...
bw multiplier: 0.50
Loaded 9232482 distances
dists stdev: 862.93
bandwidth h: 18.49
locations: 3038
customers: 3038
p: 900
Elapsed time: 275 ms

[INFO] Instance loaded
loc_max_id: 3038
loc_cnt: 3038
service: p3038_900
cust_max_id: 3038
cust_cnt: 3038
unweighted obj function
p: 900
total_demand: 155824.00


Default row names c1, c2 ... being created.
-------------------------------------------------
-------------------------------------------------
    EXACT_CPMP_BIN
-------------------------------------------------
Version identifier: 22.1.1.0 | 2022-11-28 | 9160aff4d
CPXPARAM_TimeLimit                               3600
Tried aggregator 1 time.
Presolve has eliminated 0 rows and 0 columns...
Reduced MIP has 6077 rows, 9232482 columns, and 18464964 nonzeros.
Reduced MIP has 9232482 binaries, 0 generals, 0 SOSs, and 0 indicators.
Presolve time = 77.01 sec. (16445.21 ticks)
Tried aggregator 1 time.
Presolve has eliminated 0 rows and 0 columns...
Detecting symmetries...
Reduced MIP has 6077 rows, 9232482 columns, and 18464964 nonzeros.
Reduced MIP has 9232482 binaries, 0 generals, 0 SOSs, and 0 indicators.
Presolve time = 98.14 sec. (18570.07 ticks)
Probing time = 42.52 sec. (2185.65 ticks)
Clique table members: 9232482.
MIP emphasis: balance optimality and feasibility.
MIP search method: dynamic search.
Parallel mode: deterministic, using up to 32 threads.
Root relaxation solution time = 190.04 sec. (15912.23 ticks)

        Nodes                                         Cuts/
   Node  Left     Objective  IInf  Best Integer    Best Bound    ItCnt     Gap

*     0+    0                      2635879.5894        0.0000           100.00%
*     0+    0                      2456175.3345        0.0000           100.00%
*     0+    0                      2312163.9632        0.0000           100.00%
*     0+    0                      2162323.6908        0.0000           100.00%
*     0+    0                      2041446.3873        0.0000           100.00%
      0     0       -0.0000  2806  2041446.3873        0.0000     2855  100.00%
*     0+    0                      2004287.7778        0.0000           100.00%
*     0+    0                      1973195.4095        0.0000           100.00%
      0     0    43087.2775  3668  1973195.4095    Cuts: 1619     6075   97.82%
      0     0    67735.0364  4832  1973195.4095    Cuts: 1619     8914   96.57%
      0     0    76551.0134  5144  1973195.4095    Cuts: 1619    11285   96.12%
*     0+    0                      1973018.3982    76551.0134            96.12%
*     0+    0                      1950371.6290    76551.0134            96.08%
      0     0    79068.3988  4881  1950371.6290    Cuts: 1619    13448   95.95%
      0     0    84889.6967  5140  1950371.6290    Cuts: 1619    15772   95.65%
Detecting symmetries...
      0     0    87799.0602  5102  1950371.6290    Cuts: 1619    17945   95.50%
      0     0    89455.9154  4990  1950371.6290    Cuts: 1619    20271   95.41%
*     0+    0                       243229.3923    89455.9154            63.22%
      0     0    90311.4300  4651   243229.3923    Cuts: 1619    22359   62.87%
*     0+    0                       210557.2165    90311.4300            57.11%
      0     0    90863.3924  4715   210557.2165    Cuts: 1450    24457   56.85%
*     0+    0                       169085.3960    90863.3924            46.26%
      0     0    91185.9480  4613   169085.3960    Cuts: 1081    26054   46.07%
*     0+    0                       154417.1462    91185.9480            40.95%
      0     0    91399.6345  4082   154417.1462     Cuts: 867    27288   40.81%
*     0+    0                       139686.4820    91399.6345            34.57%
*     0+    0                       139622.5546    91399.6345            34.54%
      0     0    91516.7629  4239   139622.5546     Cuts: 578    28400   34.45%
*     0+    0                       115998.0181    91516.7629            21.10%
      0     0  -1.00000e+75     0   115998.0181    91516.7629    28400   21.10%

Clique cuts applied:  2870
Cover cuts applied:  6680
Flow cuts applied:  290
Mixed integer rounding cuts applied:  665
Zero-half cuts applied:  1539

Root node processing (before b&c):
  Real time             = 3611.33 sec. (1232268.64 ticks)
Parallel b&c, 32 threads:
  Real time             =    0.00 sec. (0.00 ticks)
  Sync time (average)   =    0.00 sec.
  Wait time (average)   =    0.00 sec.
                          ------------
Total (root+branch&cut) = 3611.33 sec. (1232268.64 ticks)
[INFO] Saving variables cplex:
./outputs/solutions/2024-08-26_LIT_seed_200/VarsValues_cplex/test_lit_p3038_900_CPMP_Vars_Bin_p_900_EXACT_CPMP_BIN.txt
[INFO] Saving results cplex: 
./outputs/solutions/2024-08-26_LIT_seed_200/Results_cplex/test_lit_p3038_900_Bin_EXACT_CPMP_BIN.csv

Final solution CPMP:
p locations: 3034 3015 2997 2984 2981 2980 2973 2967 2962 2955 2949 2948 2945 2943 2938 2937 2926 2921 2912 2910 2908 2902 2901 2893 2886 2884 2882 2872 2866 2863 2857 2845 2839 2835 2833 2829 2825 2810 2807 2805 2801 2799 2796 2790 2782 2780 2773 2766 2749 2746 2738 2734 2729 2726 2713 2701 2692 2690 2688 2682 2677 2671 2646 2643 2638 2629 2624 2621 2620 2617 2609 2606 2595 2584 2574 2573 2569 2563 2558 2554 2545 2542 2538 2529 2527 2520 2512 2507 2503 2498 2497 2495 2494 2488 2484 2480 2471 2466 2462 2459 2450 2447 2443 2439 2435 2432 2430 2417 2415 2412 2400 2395 2380 2377 2374 2372 1109 1084 375 1077 1051 1042 2531 1038 2511 1018 1727 1007 1003 1000 291 992 980 971 968 2457 964 947 1656 945 1654 940 2358 936 927 916 207 912 908 2326 2399 906 900 2391 898 1607 2385 892 2382 889 1598 882 1591 876 2363 870 862 1569 846 1555 837 1546 2255 834 2252 831 122 3033 1540 825 1609 116 814 1523 802 799 90 789 779 70 758 49 753 2580 1087 378 750 3027 41 2579 1086 2568 1075 366 738 736 2154 735 3012 26 725 1434 722 710 2534 1041 2197 704 699 2117 1026 689 1398 683 1392 677 675 671 1380 2076 657 654 985 2066 646 2848 1355 640 2468 975 638 635 2053 2122 629 959 250 622 617 1326 612 2030 597 932 1641 2350 589 2414 921 584 581 2407 914 572 1990 568 903 566 2388 895 558 2760 1267 554 1966 246 241 2575 1082 408 230 1071 734 397 1106 219 1063 52 761 216 1634 2343 1060 386 214 1632 886 177 1056 45 679 2172 200 534 2736 1243 526 1235 185 3004 18 2514 1021 10 845 2263 171 1589 1992 499 1917 159 325 233 152 319 1737 2312 819 1603 110 145 1637 144 2271 806 132 841 1550 466 1884 134 1552 1066 1775 55 764 1473 878 204 1622 538 46 1426 380 2582 1089 2249 756 1465 794 2212 190 2317 3018 32 239 2 2913 1420 2129 3025 39 2950 1457 2166 168 1586 3000 14 648 2141 1033 696 1405 22 356 562 2764 1271 1980 225 2978 1485 486 149 858 2276 820 1976 483 744 3021 1528 35 1453 77 2279 786 1567 74 411 2613 1120 243 2370 844 507 1096 1805 1874 840 1549 166 2293 2591 1098 628 1337 248 1666 2424 931 2349 257 124 461 95 1103 766 1475 429 2631 1138 99 1517 2226 1675 182 1600 686 1395 516 2718 1225 777 103 2230 774 437 1146 1680 187 1677 184 782 108 817 784 1772 279 988 446 1864 120 1613 192 529 1238 546 1255 209 2336 130 127 464 1307 261 263 602 2020 274 1692 625 997 293 1711 1713 300 1350 304 308 314 323 328 1746 158 867 2697 1204 668 2870 1377 1015 1724 341 6 343 510 345 849 175 1593 512 353 358 361 707 370 1079 295 1788 372 1790 390 1808 393 1069 732 395 402 327 1820 405 1114 2585 1092 1135 771 1852 1936 443 448 112 449 1867 451 453 1179 2304 811 474 143 828 1572 491 426 1919 2715 1222 514 530 2037 544 1112 1118 1123 1832 1126 2626 1133 349 1842 1141 1144 1853 1151 1154 2649 1156 2652 1159 2656 1163 1872 2659 1166 2662 1169 1171 1174 1176 2674 1181 2680 1187 1190 2686 1193 1196 1198 1203 1207 423 1916 1209 2705 1212 1921 2707 1214 1217 2721 1228 1232 1246 1955 2741 1248 2743 1250 2751 1258 2754 1261 2757 1264 480 1973 1269 1276 1985 2771 1278 2777 1284 1291 1295 1300 1302 518 2011 2803 1310 1313 1315 1318 2813 1320 1322 2822 1329 1333 2042 1341 2050 2838 1345 2841 1348 2852 1359 1368 1372 2868 1375 2876 1383 1385 2094 1387 2096 1390 1402 2111 1410 2907 1414 1418 1423 2132 2932 1439 2148 1442 658 2151 2939 1446 1449 2953 1460 2169 1468 1478 1481 1489 2987 1494 1497 1501 717 2210 1502 2211 1506 3002 1509 1516 1527 2236 1531 2240 3029 1536 2245 1544 1557 2266 67 1560 82 1575 85 1578 87 1580 796 2289 1616 1619 2328 1629 1644 860 2353 154 1647 1650 165 1658 1662 1669 1671 1686 195 1688 1699 1703 212 1705 1708 1715 1719 236 1729 1738 1740 1744 1748 1752 1753 265 1758 269 1762 1766 1768 1770 288 1781 1783 299 1792 1794 1800 310 1803 1814 331 1824 1828 1837 1840 1845 1848 1856 1858 1870 1877 1881 1894 1897 1900 1903 415 1908 1910 418 1911 1914 434 1927 1938 1943 1945 456 1949 1953 1960 470 1963 1965 1982 495 1988 501 1994 504 1997 2001 513 2006 515 2008 521 2014 540 2033 2034 548 2041 551 2044 2062 574 2067 577 2070 2073 2079 2080 592 2085 595 2088 598 2091 2098 607 2100 2103 2108 619 2112 2120 641 2134 2144 664 2157 2160 2163 2175 2178 2180 2181 692 2185 2191 2193 712 2205 2219 728 2221 2223 2233 749 2242 2274 790 2283 2297 2305 2315 2329 2340 2361 2364 
p size: 900
objective: 115998.018111440076609
sum (dij * xij) 
demand/capacity: 155824.000000000000000/194400
Solution is Feasible
Statistics:
Max distance: 2035.589840807818518
Min distance: 0.000000000000000
Avg distance: 38.182362775325899
Std deviation distance: 90.292067951583647


Final total elapsed time: 3689s
[INFO] Saving assignment: ./outputs/solutions/2024-08-26_LIT_seed_200/Assignments/test_lit_p3038_900_p_900_EXACT_CPMP_BIN.txt
[INFO] Saving results: ./outputs/solutions/2024-08-26_LIT_seed_200/test_lit_p3038_900_results_EXACT_CPMP_BIN.csv
[INFO] Saving all results: ./outputs/solutions/test_all_results.csv
Post Optimization: null


-------------------------------------------------
Post Optimization
-------------------------------------------------
method: null
-------------------------------------------------
Time for post-optimization: -89.000000000000000s
PostOptimization constructor
p locations: 3034 3015 2997 2984 2981 2980 2973 2967 2962 2955 2949 2948 2945 2943 2938 2937 2926 2921 2912 2910 2908 2902 2901 2893 2886 2884 2882 2872 2866 2863 2857 2845 2839 2835 2833 2829 2825 2810 2807 2805 2801 2799 2796 2790 2782 2780 2773 2766 2749 2746 2738 2734 2729 2726 2713 2701 2692 2690 2688 2682 2677 2671 2646 2643 2638 2629 2624 2621 2620 2617 2609 2606 2595 2584 2574 2573 2569 2563 2558 2554 2545 2542 2538 2529 2527 2520 2512 2507 2503 2498 2497 2495 2494 2488 2484 2480 2471 2466 2462 2459 2450 2447 2443 2439 2435 2432 2430 2417 2415 2412 2400 2395 2380 2377 2374 2372 1109 1084 375 1077 1051 1042 2531 1038 2511 1018 1727 1007 1003 1000 291 992 980 971 968 2457 964 947 1656 945 1654 940 2358 936 927 916 207 912 908 2326 2399 906 900 2391 898 1607 2385 892 2382 889 1598 882 1591 876 2363 870 862 1569 846 1555 837 1546 2255 834 2252 831 122 3033 1540 825 1609 116 814 1523 802 799 90 789 779 70 758 49 753 2580 1087 378 750 3027 41 2579 1086 2568 1075 366 738 736 2154 735 3012 26 725 1434 722 710 2534 1041 2197 704 699 2117 1026 689 1398 683 1392 677 675 671 1380 2076 657 654 985 2066 646 2848 1355 640 2468 975 638 635 2053 2122 629 959 250 622 617 1326 612 2030 597 932 1641 2350 589 2414 921 584 581 2407 914 572 1990 568 903 566 2388 895 558 2760 1267 554 1966 246 241 2575 1082 408 230 1071 734 397 1106 219 1063 52 761 216 1634 2343 1060 386 214 1632 886 177 1056 45 679 2172 200 534 2736 1243 526 1235 185 3004 18 2514 1021 10 845 2263 171 1589 1992 499 1917 159 325 233 152 319 1737 2312 819 1603 110 145 1637 144 2271 806 132 841 1550 466 1884 134 1552 1066 1775 55 764 1473 878 204 1622 538 46 1426 380 2582 1089 2249 756 1465 794 2212 190 2317 3018 32 239 2 2913 1420 2129 3025 39 2950 1457 2166 168 1586 3000 14 648 2141 1033 696 1405 22 356 562 2764 1271 1980 225 2978 1485 486 149 858 2276 820 1976 483 744 3021 1528 35 1453 77 2279 786 1567 74 411 2613 1120 243 2370 844 507 1096 1805 1874 840 1549 166 2293 2591 1098 628 1337 248 1666 2424 931 2349 257 124 461 95 1103 766 1475 429 2631 1138 99 1517 2226 1675 182 1600 686 1395 516 2718 1225 777 103 2230 774 437 1146 1680 187 1677 184 782 108 817 784 1772 279 988 446 1864 120 1613 192 529 1238 546 1255 209 2336 130 127 464 1307 261 263 602 2020 274 1692 625 997 293 1711 1713 300 1350 304 308 314 323 328 1746 158 867 2697 1204 668 2870 1377 1015 1724 341 6 343 510 345 849 175 1593 512 353 358 361 707 370 1079 295 1788 372 1790 390 1808 393 1069 732 395 402 327 1820 405 1114 2585 1092 1135 771 1852 1936 443 448 112 449 1867 451 453 1179 2304 811 474 143 828 1572 491 426 1919 2715 1222 514 530 2037 544 1112 1118 1123 1832 1126 2626 1133 349 1842 1141 1144 1853 1151 1154 2649 1156 2652 1159 2656 1163 1872 2659 1166 2662 1169 1171 1174 1176 2674 1181 2680 1187 1190 2686 1193 1196 1198 1203 1207 423 1916 1209 2705 1212 1921 2707 1214 1217 2721 1228 1232 1246 1955 2741 1248 2743 1250 2751 1258 2754 1261 2757 1264 480 1973 1269 1276 1985 2771 1278 2777 1284 1291 1295 1300 1302 518 2011 2803 1310 1313 1315 1318 2813 1320 1322 2822 1329 1333 2042 1341 2050 2838 1345 2841 1348 2852 1359 1368 1372 2868 1375 2876 1383 1385 2094 1387 2096 1390 1402 2111 1410 2907 1414 1418 1423 2132 2932 1439 2148 1442 658 2151 2939 1446 1449 2953 1460 2169 1468 1478 1481 1489 2987 1494 1497 1501 717 2210 1502 2211 1506 3002 1509 1516 1527 2236 1531 2240 3029 1536 2245 1544 1557 2266 67 1560 82 1575 85 1578 87 1580 796 2289 1616 1619 2328 1629 1644 860 2353 154 1647 1650 165 1658 1662 1669 1671 1686 195 1688 1699 1703 212 1705 1708 1715 1719 236 1729 1738 1740 1744 1748 1752 1753 265 1758 269 1762 1766 1768 1770 288 1781 1783 299 1792 1794 1800 310 1803 1814 331 1824 1828 1837 1840 1845 1848 1856 1858 1870 1877 1881 1894 1897 1900 1903 415 1908 1910 418 1911 1914 434 1927 1938 1943 1945 456 1949 1953 1960 470 1963 1965 1982 495 1988 501 1994 504 1997 2001 513 2006 515 2008 521 2014 540 2033 2034 548 2041 551 2044 2062 574 2067 577 2070 2073 2079 2080 592 2085 595 2088 598 2091 2098 607 2100 2103 2108 619 2112 2120 641 2134 2144 664 2157 2160 2163 2175 2178 2180 2181 692 2185 2191 2193 712 2205 2219 728 2221 2223 2233 749 2242 2274 790 2283 2297 2305 2315 2329 2340 2361 2364 
p size: 900
objective: 115998.018111440076609
sum (dij * xij) 
demand/capacity: 155824.000000000000000/194400
Solution is Feasible
[INFO] Running post-optimization
Time limit: -89.000000000000000
Max size of the neigh: 2



Finishing post-optimization
p locations: 3034 3015 2997 2984 2981 2980 2973 2967 2962 2955 2949 2948 2945 2943 2938 2937 2926 2921 2912 2910 2908 2902 2901 2893 2886 2884 2882 2872 2866 2863 2857 2845 2839 2835 2833 2829 2825 2810 2807 2805 2801 2799 2796 2790 2782 2780 2773 2766 2749 2746 2738 2734 2729 2726 2713 2701 2692 2690 2688 2682 2677 2671 2646 2643 2638 2629 2624 2621 2620 2617 2609 2606 2595 2584 2574 2573 2569 2563 2558 2554 2545 2542 2538 2529 2527 2520 2512 2507 2503 2498 2497 2495 2494 2488 2484 2480 2471 2466 2462 2459 2450 2447 2443 2439 2435 2432 2430 2417 2415 2412 2400 2395 2380 2377 2374 2372 1109 1084 375 1077 1051 1042 2531 1038 2511 1018 1727 1007 1003 1000 291 992 980 971 968 2457 964 947 1656 945 1654 940 2358 936 927 916 207 912 908 2326 2399 906 900 2391 898 1607 2385 892 2382 889 1598 882 1591 876 2363 870 862 1569 846 1555 837 1546 2255 834 2252 831 122 3033 1540 825 1609 116 814 1523 802 799 90 789 779 70 758 49 753 2580 1087 378 750 3027 41 2579 1086 2568 1075 366 738 736 2154 735 3012 26 725 1434 722 710 2534 1041 2197 704 699 2117 1026 689 1398 683 1392 677 675 671 1380 2076 657 654 985 2066 646 2848 1355 640 2468 975 638 635 2053 2122 629 959 250 622 617 1326 612 2030 597 932 1641 2350 589 2414 921 584 581 2407 914 572 1990 568 903 566 2388 895 558 2760 1267 554 1966 246 241 2575 1082 408 230 1071 734 397 1106 219 1063 52 761 216 1634 2343 1060 386 214 1632 886 177 1056 45 679 2172 200 534 2736 1243 526 1235 185 3004 18 2514 1021 10 845 2263 171 1589 1992 499 1917 159 325 233 152 319 1737 2312 819 1603 110 145 1637 144 2271 806 132 841 1550 466 1884 134 1552 1066 1775 55 764 1473 878 204 1622 538 46 1426 380 2582 1089 2249 756 1465 794 2212 190 2317 3018 32 239 2 2913 1420 2129 3025 39 2950 1457 2166 168 1586 3000 14 648 2141 1033 696 1405 22 356 562 2764 1271 1980 225 2978 1485 486 149 858 2276 820 1976 483 744 3021 1528 35 1453 77 2279 786 1567 74 411 2613 1120 243 2370 844 507 1096 1805 1874 840 1549 166 2293 2591 1098 628 1337 248 1666 2424 931 2349 257 124 461 95 1103 766 1475 429 2631 1138 99 1517 2226 1675 182 1600 686 1395 516 2718 1225 777 103 2230 774 437 1146 1680 187 1677 184 782 108 817 784 1772 279 988 446 1864 120 1613 192 529 1238 546 1255 209 2336 130 127 464 1307 261 263 602 2020 274 1692 625 997 293 1711 1713 300 1350 304 308 314 323 328 1746 158 867 2697 1204 668 2870 1377 1015 1724 341 6 343 510 345 849 175 1593 512 353 358 361 707 370 1079 295 1788 372 1790 390 1808 393 1069 732 395 402 327 1820 405 1114 2585 1092 1135 771 1852 1936 443 448 112 449 1867 451 453 1179 2304 811 474 143 828 1572 491 426 1919 2715 1222 514 530 2037 544 1112 1118 1123 1832 1126 2626 1133 349 1842 1141 1144 1853 1151 1154 2649 1156 2652 1159 2656 1163 1872 2659 1166 2662 1169 1171 1174 1176 2674 1181 2680 1187 1190 2686 1193 1196 1198 1203 1207 423 1916 1209 2705 1212 1921 2707 1214 1217 2721 1228 1232 1246 1955 2741 1248 2743 1250 2751 1258 2754 1261 2757 1264 480 1973 1269 1276 1985 2771 1278 2777 1284 1291 1295 1300 1302 518 2011 2803 1310 1313 1315 1318 2813 1320 1322 2822 1329 1333 2042 1341 2050 2838 1345 2841 1348 2852 1359 1368 1372 2868 1375 2876 1383 1385 2094 1387 2096 1390 1402 2111 1410 2907 1414 1418 1423 2132 2932 1439 2148 1442 658 2151 2939 1446 1449 2953 1460 2169 1468 1478 1481 1489 2987 1494 1497 1501 717 2210 1502 2211 1506 3002 1509 1516 1527 2236 1531 2240 3029 1536 2245 1544 1557 2266 67 1560 82 1575 85 1578 87 1580 796 2289 1616 1619 2328 1629 1644 860 2353 154 1647 1650 165 1658 1662 1669 1671 1686 195 1688 1699 1703 212 1705 1708 1715 1719 236 1729 1738 1740 1744 1748 1752 1753 265 1758 269 1762 1766 1768 1770 288 1781 1783 299 1792 1794 1800 310 1803 1814 331 1824 1828 1837 1840 1845 1848 1856 1858 1870 1877 1881 1894 1897 1900 1903 415 1908 1910 418 1911 1914 434 1927 1938 1943 1945 456 1949 1953 1960 470 1963 1965 1982 495 1988 501 1994 504 1997 2001 513 2006 515 2008 521 2014 540 2033 2034 548 2041 551 2044 2062 574 2067 577 2070 2073 2079 2080 592 2085 595 2088 598 2091 2098 607 2100 2103 2108 619 2112 2120 641 2134 2144 664 2157 2160 2163 2175 2178 2180 2181 692 2185 2191 2193 712 2205 2219 728 2221 2223 2233 749 2242 2274 790 2283 2297 2305 2315 2329 2340 2361 2364 
p size: 900
objective: 115998.018111440076609
sum (dij * xij) 
demand/capacity: 155824.000000000000000/194400
Solution is Feasible
Solution Stats
Statistics:
Max distance: 2035.589840807818518
Min distance: 0.000000000000000
Avg distance: 38.182362775325899
Std deviation distance: 90.292067951583647


[INFO] Saving assignment: ./outputs/solutions/2024-08-26_LIT_seed_200/Assignments/test_lit_p3038_900_p_900_EXACT_CPMP_BIN_POSTOPT.txt
[INFO] Saving results: ./outputs/solutions/2024-08-26_LIT_seed_200/test_lit_p3038_900_results_EXACT_CPMP_BIN_POSTOPT.csv
[INFO] Saving all results: ./outputs/solutions/test_all_results.csv
Final total elapsed time (post opt): 3689s
Elapsed time: 3689239 ms

